5 5
8 1 2 7 1 3 2 4 3 4 4 15 1 4 5 16 2 4 14 1 7 4 2 19 5 11 1 14 3 4 3 4 16 5 12 1 19 4 4 7 1 18 5 18 2 9 4 4 3 5 14 3 3 2 10
7 1 3 13 2 1 7 2 19 4 5 16 3 11 1 19 4 19 2 3 19 5 18 2 3 4 1 11 5 2 7 4 13 3 11 1 11 5 15 3 1 15 2 5 3 15
8 5 4 2 1 18 3 2 5 14 2 15 5 5 9 3 5 1 3 2 4 4 18 1 1 14 1 5 6 2 2 10 3 13 5 4 9 5 5 2 10 3 20 1 15 1 4 10 3 2 10 4 17 3 12
6 4 3 19 4 8 2 13 1 19 5 5 7 1 12 2 18 4 12 3 12 5 3 6 1 4 5 11 4 2 2 17 4 4 15 1 7 3 14 2 14 5 5 11 1 8 2 11 4 13 3 17 5 2 16 1 2 4 18 3 15 5 10
4 4 4 7 2 2 1 12 3 10 2 2 17 4 10 4 2 3 5 20 4 7 3 9 2 4 15 3 18